; benchmark generated from python API
(set-info :status unknown)
(declare-fun S_4 () Real)
(declare-fun L_3 () Real)
(declare-fun A_3 () Real)
(declare-fun S_3 () Real)
(declare-fun A_4 () Real)
(declare-fun A_2 () Real)
(declare-fun A_1 () Real)
(declare-fun A_0 () Real)
(declare-fun S_2 () Real)
(declare-fun S_1 () Real)
(declare-fun S_0 () Real)
(declare-fun L_4 () Real)
(declare-fun L_2 () Real)
(declare-fun L_1 () Real)
(declare-fun L_0 () Real)
(declare-fun a () Real)
(assert
 (exists ((I_0 Real) (I_1 Real) (I_2 Real) (I_3 Real) (I_4 Real) (C Real) (B Real) )(let ((?x95 (- A_3 L_3)))
 (let (($x124 (<= ?x95 S_4)))
 (let (($x123 (<= ?x95 S_3)))
 (let (($x122 (>= A_4 A_3)))
 (let (($x121 (>= A_3 A_2)))
 (let (($x120 (>= A_2 A_1)))
 (let (($x119 (>= A_1 A_0)))
 (let (($x117 (>= S_4 S_3)))
 (let (($x114 (>= S_3 S_2)))
 (let (($x111 (>= S_2 S_1)))
 (let (($x108 (>= S_1 S_0)))
 (let ((?x100 (- A_4 L_4)))
 (let ((?x142 (* C 1.0)))
 (let ((?x145 (+ I_3 ?x142)))
 (let ((?x90 (- A_2 L_2)))
 (let ((?x153 (+ I_1 ?x142)))
 (let ((?x85 (- A_1 L_1)))
 (let ((?x157 (+ I_0 ?x142)))
 (let (($x81 (= L_4 L_3)))
 (let (($x164 (=> (not (> (- (- A_4 L_3) I_4) B)) $x81)))
 (let (($x162 (> (- (- A_4 L_3) I_4) B)))
 (let (($x168 (=> $x162 (= L_4 (- (- A_4 I_4) B)))))
 (let (($x71 (= L_3 L_2)))
 (let (($x172 (=> (not (> (- (- A_3 L_2) I_3) B)) $x71)))
 (let (($x170 (> (- (- A_3 L_2) I_3) B)))
 (let (($x176 (=> $x170 (= L_3 (- (- A_3 I_3) B)))))
 (let (($x61 (= L_2 L_1)))
 (let (($x180 (=> (not (> (- (- A_2 L_1) I_2) B)) $x61)))
 (let (($x178 (> (- (- A_2 L_1) I_2) B)))
 (let (($x184 (=> $x178 (= L_2 (- (- A_2 I_2) B)))))
 (let (($x51 (= L_1 L_0)))
 (let (($x188 (=> (not (> (- (- A_1 L_0) I_1) B)) $x51)))
 (let (($x186 (> (- (- A_1 L_0) I_1) B)))
 (let (($x192 (=> $x186 (= L_1 (- (- A_1 I_1) B)))))
 (let (($x42 (= a 1.0)))
 (let (($x34 (>= L_0 0.0)))
 (and $x34 (<= I_0 (- A_0 L_0)) (>= C (* 5.0 a)) (>= B (* 5.0 a)) $x42 $x192 $x188 $x184 $x180 $x176 $x172 $x168 $x164 $x192 $x188 $x184 $x180 $x176 $x172 $x168 $x164 (= I_1 (ite (< ?x157 ?x85) ?x157 ?x85)) (= I_2 (ite (< ?x153 ?x90) ?x153 ?x90)) (= I_3 (ite (< (+ I_2 ?x142) ?x95) (+ I_2 ?x142) ?x95)) (= I_4 (ite (< ?x145 ?x100) ?x145 ?x100)) (>= S_0 (- I_0 ?x142)) (<= S_0 I_0) (>= S_1 I_0) $x108 (<= S_1 I_1) (>= S_2 I_1) $x111 (<= S_2 I_2) (>= S_3 I_2) $x114 (<= S_3 I_3) (>= S_4 I_3) $x117 (<= S_4 I_4) $x119 $x120 $x121 $x122 $x123 $x124))))))))))))))))))))))))))))))))))))))
 )
(check-sat)
